p cnf 64 296
1 2 3 4 0
5 6 7 8 0
9 10 11 12 0
13 14 15 16 0
-1 -2 0
-1 -3 0
-1 -4 0
-2 -3 0
-2 -4 0
-3 -4 0
-5 -6 0
-5 -7 0
-5 -8 0
-6 -7 0
-6 -8 0
-7 -8 0
-9 -10 0
-9 -11 0
-9 -12 0
-10 -11 0
-10 -12 0
-11 -12 0
-13 -14 0
-13 -15 0
-13 -16 0
-14 -15 0
-14 -16 0
-15 -16 0
-1 -5 0
-1 -9 0
-1 -13 0
-5 -9 0
-5 -13 0
-9 -13 0
-2 -6 0
-2 -10 0
-2 -14 0
-6 -10 0
-6 -14 0
-10 -14 0
-3 -7 0
-3 -11 0
-3 -15 0
-7 -11 0
-7 -15 0
-11 -15 0
-4 -8 0
-4 -12 0
-4 -16 0
-8 -12 0
-8 -16 0
-12 -16 0
17 18 19 20 0
21 22 23 24 0
25 26 27 28 0
29 30 31 32 0
-17 -18 0
-17 -19 0
-17 -20 0
-18 -19 0
-18 -20 0
-19 -20 0
-21 -22 0
-21 -23 0
-21 -24 0
-22 -23 0
-22 -24 0
-23 -24 0
-25 -26 0
-25 -27 0
-25 -28 0
-26 -27 0
-26 -28 0
-27 -28 0
-29 -30 0
-29 -31 0
-29 -32 0
-30 -31 0
-30 -32 0
-31 -32 0
-17 -21 0
-17 -25 0
-17 -29 0
-21 -25 0
-21 -29 0
-25 -29 0
-18 -22 0
-18 -26 0
-18 -30 0
-22 -26 0
-22 -30 0
-26 -30 0
-19 -23 0
-19 -27 0
-19 -31 0
-23 -27 0
-23 -31 0
-27 -31 0
-20 -24 0
-20 -28 0
-20 -32 0
-24 -28 0
-24 -32 0
-28 -32 0
33 34 35 36 0
37 38 39 40 0
41 42 43 44 0
45 46 47 48 0
-33 -34 0
-33 -35 0
-33 -36 0
-34 -35 0
-34 -36 0
-35 -36 0
-37 -38 0
-37 -39 0
-37 -40 0
-38 -39 0
-38 -40 0
-39 -40 0
-41 -42 0
-41 -43 0
-41 -44 0
-42 -43 0
-42 -44 0
-43 -44 0
-45 -46 0
-45 -47 0
-45 -48 0
-46 -47 0
-46 -48 0
-47 -48 0
-33 -37 0
-33 -41 0
-33 -45 0
-37 -41 0
-37 -45 0
-41 -45 0
-34 -38 0
-34 -42 0
-34 -46 0
-38 -42 0
-38 -46 0
-42 -46 0
-35 -39 0
-35 -43 0
-35 -47 0
-39 -43 0
-39 -47 0
-43 -47 0
-36 -40 0
-36 -44 0
-36 -48 0
-40 -44 0
-40 -48 0
-44 -48 0
49 50 51 52 0
53 54 55 56 0
57 58 59 60 0
61 62 63 64 0
-49 -50 0
-49 -51 0
-49 -52 0
-50 -51 0
-50 -52 0
-51 -52 0
-53 -54 0
-53 -55 0
-53 -56 0
-54 -55 0
-54 -56 0
-55 -56 0
-57 -58 0
-57 -59 0
-57 -60 0
-58 -59 0
-58 -60 0
-59 -60 0
-61 -62 0
-61 -63 0
-61 -64 0
-62 -63 0
-62 -64 0
-63 -64 0
-49 -53 0
-49 -57 0
-49 -61 0
-53 -57 0
-53 -61 0
-57 -61 0
-50 -54 0
-50 -58 0
-50 -62 0
-54 -58 0
-54 -62 0
-58 -62 0
-51 -55 0
-51 -59 0
-51 -63 0
-55 -59 0
-55 -63 0
-59 -63 0
-52 -56 0
-52 -60 0
-52 -64 0
-56 -60 0
-56 -64 0
-60 -64 0
-49 -55 0
-49 -59 0
-53 -51 0
-53 -59 0
-53 -63 0
-57 -51 0
-57 -55 0
-57 -63 0
-61 -55 0
-61 -59 0
-50 -20 0
-50 -24 0
-50 -32 0
-54 -20 0
-54 -24 0
-54 -28 0
-58 -20 0
-58 -24 0
-58 -28 0
-58 -32 0
-62 -20 0
-62 -24 0
-62 -28 0
-62 -32 0
5 0
-35 -3 0
-35 -7 0
-35 -15 0
-39 -3 0
-39 -7 0
-39 -11 0
-43 -3 0
-43 -7 0
-43 -11 0
-43 -15 0
-47 -3 0
-47 -7 0
-47 -11 0
-47 -15 0
-17 -36 0
-17 -44 0
-17 -48 0
-21 -36 0
-21 -40 0
-21 -48 0
-25 -36 0
-25 -40 0
-25 -44 0
-29 -36 0
-29 -40 0
-29 -44 0
-29 -48 0
-35 -33 0
-35 -37 0
-35 -41 0
-39 -33 0
-39 -37 0
-39 -41 0
-39 -45 0
-43 -33 0
-43 -37 0
-43 -41 0
-43 -45 0
-47 -33 0
-47 -37 0
-47 -41 0
-47 -45 0
-49 -56 0
-49 -60 0
-49 -64 0
-53 -60 0
-53 -64 0
-57 -64 0
-50 -4 0
-50 -8 0
-50 -16 0
-54 -4 0
-54 -8 0
-54 -12 0
-58 -4 0
-58 -8 0
-58 -12 0
-58 -16 0
-62 -4 0
-62 -8 0
-62 -12 0
-62 -16 0
18 0